\ This file has been generated by DOcplex
\ ENCODING=ISO-8859-1
\Problem name: CPLEX

Minimize
 obj: - 6 b_0 + 7 b_3 + 16 b_4 + 10 b_5 - 9 b_6 + 9 b_7 + 9 b_8 + 19 b_9
      - 10 b_10 + 11 b_11 + 5 b_12 + 13 b_13 - 8 b_14 + 19 b_15 + 12 b_16
      - 9 b_17 + 6 b_18 + 15 b_19 + 12 i_0 + 11 i_1 + 4 i_2 + 16 i_3 - 3 i_4
      + 13 i_5 - 9 i_6 + 12 i_7 - 5 i_8 + 20 i_9 + 6 i_10 + 17 i_11 + 2 i_12
      - 6 i_13 - i_14 + 4 i_15 - 3 i_16 + 18 i_17 + 4 i_18 + 4 i_19 + 3 f_0
      + 14 f_1 + 4 f_2 + 15 f_3 - 9 f_4 + 17 f_5 - 8 f_6 + f_7 - 10 f_8 - 3 f_9
      + 2
Subject To
 lin_eq_0: 18 b_1 - b_2 - 10 b_8 - 10 b_16 + 12 b_18 - 2 i_5 + 20 i_8 + 12 i_14
           - 8 i_19 + 15 f_2 - 10 f_6 <= 1169
 lin_eq_1: 17 b_3 + 18 b_9 + 16 b_10 + 16 b_14 - 2 b_15 - b_18 - 7 b_19 - 4 i_3
           + 20 i_9 + 6 i_16 + 6 f_1 - 5 f_2 <= 58
 lin_eq_2: 19 b_4 - 10 b_7 - 10 b_11 + b_18 - 5 i_0 - 3 i_3 + 10 i_6 - 5 i_8
           + i_15 + 16 i_19 - 10 f_0 + 15 f_2 + 20 f_7 <= 2875
 lin_eq_3: 17 b_1 - 4 i_3 - i_7 - 6 i_17 - i_18 + 9 i_19 + 15 f_0 + 13 f_7
           - 10 f_8 + 17 f_9 <= 2122
 lin_eq_4: 2 b_2 + 7 b_6 - 8 b_10 + 2 b_11 + 13 b_14 - 7 b_18 + 3 i_4 + 7 i_9
           + 6 i_17 - 10 f_0 + 13 f_3 + 7 f_6 - f_7 + f_8 <= 1286
 lin_eq_5: 13 b_1 + 17 b_3 + 19 b_10 - 3 b_12 + 18 b_16 + 11 b_19 - 3 i_0
           + 8 i_11 - 5 i_19 + 7 f_0 + 3 f_1 - f_2 - 6 f_8 <= -540
 lin_eq_6: - 7 b_0 - 10 b_9 - 8 b_10 + 16 b_19 - i_1 + 17 i_7 + 14 i_11
           - 10 i_12 + 20 i_19 + 10 f_4 - 9 f_8 + 19 f_9 <= 2702
 lin_eq_7: 10 b_0 - 8 b_1 - 9 b_3 - 10 b_5 + 7 b_9 + 8 i_0 - 7 i_2 - 4 i_3
           + 16 i_7 + i_9 + 6 i_14 + 11 f_3 + 9 f_6 <= 2393
 lin_eq_8: b_0 + 11 b_14 + 16 b_16 - 7 i_2 + 11 i_4 + 18 i_6 - 9 i_18 + 14 i_19
           + 13 f_5 - 4 f_7 + f_8 + 8 f_9 <= 2337
 lin_eq_9: 15 b_1 - 10 b_11 - 6 b_13 + 14 b_14 + 17 b_15 + 3 b_16 - 5 b_18
           + 7 i_0 + 2 i_4 + 2 i_11 - 2 i_19 + 13 f_0 + 20 f_5 <= 2046
 lin_eq_10: 7 b_0 + 20 b_6 + 8 b_7 - 7 b_12 + 2 b_13 - 9 b_14 - 3 i_0 + 13 i_7
            + 18 i_12 - 7 i_15 - 2 i_19 - 2 f_0 + 2 f_7 + 2 f_9 <= 754
 lin_eq_11: 5 b_3 + 13 b_4 + 17 b_5 + 17 b_10 + 11 b_15 + 15 b_17 - 2 i_8
            + 2 i_9 - 6 i_13 + 6 f_3 - 2 f_4 <= 1993
 lin_eq_12: 10 b_1 - 10 b_6 + 18 b_7 - 8 b_8 + 17 b_9 + 8 b_11 - 9 b_15
            + 19 b_16 - 2 b_18 + 10 i_5 - 10 i_15 + 14 i_18 + 10 f_2 + 15 f_3
             <= 1220
 lin_eq_13: - 2 b_4 + 12 b_8 + 15 b_10 - 2 b_11 + 4 b_18 + 5 i_2 - 3 i_7 - i_8
            + 20 i_15 + 5 i_17 + 6 i_18 - 10 f_6 - 10 f_8 <= 63
 lin_eq_14: 7 b_4 + 12 b_7 + 13 b_14 - 6 b_16 + 17 b_17 + i_11 + 7 i_12
            + 20 i_15 + 18 i_19 - 3 f_4 + 7 f_7 + 10 f_9 <= 2311
 lin_eq_15: 11 b_2 + 18 b_3 + 16 b_4 - 6 b_7 + 10 b_11 + 20 b_13 + 20 b_17
            + 2 i_0 + i_2 + 9 i_3 - 3 i_7 + 19 f_5 - 5 f_9 <= 2304
 lin_eq_16: 13 b_1 + 7 b_2 - 2 b_8 + 18 b_9 + 4 b_17 + 10 b_18 + 4 i_0 + 6 i_3
            + 4 i_7 - i_9 + 18 i_14 - 7 f_7 + 13 f_9 <= 1487
 lin_eq_17: 8 b_0 + 14 b_5 + 5 b_7 + 10 b_8 - 4 b_11 + i_4 + 20 i_10 + 16 i_14
            + 11 i_16 - 6 i_19 + 2 f_0 - 5 f_6 <= 940
 lin_eq_18: - 5 b_1 + 19 b_8 + 19 b_14 + 10 b_16 + 16 i_2 - 10 i_6 + 8 i_7
            + 19 i_12 + 11 i_15 - 2 i_18 + 13 f_2 + 13 f_5 - f_7 <= 3360
 lin_eq_19: 12 b_1 + 20 b_3 + 8 b_16 + 19 i_5 + 16 i_6 + 19 i_8 + 17 i_11
            + 16 i_16 - 8 i_19 + 18 f_0 - 8 f_5 - f_6 - 7 f_7 - 7 f_9 <= 2374
 lin_eq_20: - 2 b_0 + 2 b_2 + 11 b_4 - b_7 + 15 i_3 + 9 i_5 + 13 i_17 + 7 i_18
            + 8 i_19 + 11 f_1 + 19 f_3 + 4 f_9 <= 2606
 lin_eq_21: - 2 b_6 + 2 b_12 - 9 b_14 + 15 i_2 + 10 i_3 - i_8 + f_0 + 2 f_1
            + 20 f_3 + 6 f_4 + 9 f_6 + 10 f_7 + 20 f_9 <= 3104
 lin_eq_22: 12 b_0 + 14 b_2 + 15 b_11 + 8 b_14 + 7 i_0 + 9 i_3 - i_5 + 10 i_9
            - 2 f_5 + 13 f_7 <= 2565
 lin_eq_23: - 5 b_4 + 4 b_6 + 6 b_8 - 4 b_9 + 20 b_17 + 3 b_18 + 20 i_5 - 8 i_18
            + 12 f_1 - 5 f_2 + 2 f_6 + 2 f_9 <= -104
 lin_eq_24: 15 b_4 - 3 b_6 + 8 b_7 + 11 b_11 - 2 b_12 + 4 b_14 + 20 i_2 + 13 i_4
            + 11 i_8 + 19 i_11 + 4 i_14 - 6 f_7 <= 3155
 lin_eq_25: 6 b_1 - 3 b_2 + 14 b_4 + 4 b_5 + 15 b_6 - 4 b_11 + 2 b_15 + 4 b_19
            - i_7 + 8 i_15 - 4 i_16 + 9 f_4 + 15 f_7 + 12 f_9 <= 1760
 lin_eq_26: 9 b_2 + 16 b_5 + 3 b_13 + 5 b_14 + 20 b_17 - 8 i_1 + 14 i_3
            + 10 i_10 + 17 i_11 - 9 i_12 + i_17 + 19 f_2 - 4 f_3 - 9 f_4 <= 
            2066
 lin_eq_27: 17 b_2 + 13 b_5 - 3 b_7 + 3 i_0 - i_3 - 3 i_4 - 9 i_5 + 2 i_10
            - 8 i_11 - 7 i_12 + 4 i_15 - 5 f_4 + 15 f_5 <= -160
 lin_eq_28: - 2 b_6 + 12 b_15 + 3 b_16 + 4 i_2 + 20 i_3 + 16 i_4 + 8 i_5
            + 20 i_12 - 3 i_15 + 5 f_0 + 20 f_4 + 6 f_5 - f_8 - 3 f_9 <= 4466
 lin_eq_29: 6 b_0 - 9 b_7 - 8 b_17 + 10 b_18 - 2 i_12 - 5 i_13 - i_14 + 20 i_19
            + 10 f_2 - 5 f_3 - 6 f_7 + 7 f_9 <= 1394

Bounds
 0 <= b_0 <= 1
 0 <= b_1 <= 1
 0 <= b_2 <= 1
 0 <= b_3 <= 1
 0 <= b_4 <= 1
 0 <= b_5 <= 1
 0 <= b_6 <= 1
 0 <= b_7 <= 1
 0 <= b_8 <= 1
 0 <= b_9 <= 1
 0 <= b_10 <= 1
 0 <= b_11 <= 1
 0 <= b_12 <= 1
 0 <= b_13 <= 1
 0 <= b_14 <= 1
 0 <= b_15 <= 1
 0 <= b_16 <= 1
 0 <= b_17 <= 1
 0 <= b_18 <= 1
 0 <= b_19 <= 1
       i_0 <= 80
       i_1 <= 89
       i_2 <= 66
 3 <= i_3 <= 88
 2 <= i_4 <= 61
 1 <= i_5 <= 69
 4 <= i_6 <= 63
 4 <= i_7 <= 78
 3 <= i_8 <= 98
       i_9 <= 54
 1 <= i_10 <= 72
 5 <= i_11 <= 63
 1 <= i_12 <= 55
       i_13 <= 88
 1 <= i_14 <= 95
 2 <= i_15 <= 67
 4 <= i_16 <= 54
       i_17 <= 78
 4 <= i_18 <= 58
 1 <= i_19 <= 66
 1 <= f_0 <= 65
 4 <= f_1 <= 79
 5 <= f_2 <= 70
 2 <= f_3 <= 93
 3 <= f_4 <= 76
 4 <= f_5 <= 86
       f_6 <= 51
 4 <= f_7 <= 100
 4 <= f_8 <= 79
 4 <= f_9 <= 91

Binaries
 b_0 b_1 b_2 b_3 b_4 b_5 b_6 b_7 b_8 b_9 b_10 b_11 b_12 b_13 b_14 b_15 b_16 b_17
 b_18 b_19

Generals
 i_0 i_1 i_2 i_3 i_4 i_5 i_6 i_7 i_8 i_9 i_10 i_11 i_12 i_13 i_14 i_15 i_16 i_17
 i_18 i_19
End
